nproducts = 9; % marine, firebat, ghost, vulture, tankmode, siegemode, goliath, wraith, battlecruiser  
profit = [9600 , 17455 , 10909 , 16000 , 19458 , 22400 , 13091 , 6400 , 20000]; % ground DPS
pname = ["marine", "firebat", "ghost", "vulture", "tankmode", "siegemode", "goliath", "wraith", "battlecruiser"];

nresources = 3;      % mineral, gas, supply
capacity = [20000, 14000, 760]; % supply*2 to have zergling=1
rname = ["mineral","gas","supply"];

% supply*2 to have zergling=1
consumption= [| 50, 0, 2,
	      | 50, 25, 2, 
              | 25, 50, 2,
              | 75, 0, 4,
              | 150, 100, 4,
              | 150, 100, 4,
              | 100, 50, 4,
              | 150, 100, 4,
              | 400, 300, 12 |];
